sifdecoder -A pc64.lnx.gfo -st   A2ENINDL

 Problem name: A2ENINDL

 Double precision version will be formed

 The objective function uses 2 linear groups
 
 There are 15002 linear equality constraints
 
 There are 10002 free variables
 There are 10000 variables bounded only from below 
 There are 25004 fixed variables
 
 
 File successfully decoded
 CUTEST: tools (double precision version) compiled successfully
 CUTEst: ipopt (double precision version) compiled successfully

******************************************************************************
This program contains Ipopt, a library for large-scale nonlinear optimization.
 Ipopt is released as open source code under the Eclipse Public License (EPL).
         For more information visit http://projects.coin-or.org/Ipopt
******************************************************************************

This is Ipopt version trunk, running with linear solver ma57.

Number of nonzeros in equality constraint Jacobian...:    54991
Number of nonzeros in inequality constraint Jacobian.:        0
Number of nonzeros in Lagrangian Hessian.............:    25002

Total number of variables............................:    20002
                     variables with only lower bounds:    10000
                variables with lower and upper bounds:        0
                     variables with only upper bounds:        0
Total number of equality constraints.................:    15002
Total number of inequality constraints...............:        0
        inequality constraints with only lower bounds:        0
   inequality constraints with lower and upper bounds:        0
        inequality constraints with only upper bounds:        0

iter    objective    inf_pr   inf_du lg(mu)  ||d||  lg(rg) alpha_du alpha_pr  ls
   0  4.9999900e-01 9.92e+01 7.00e-01  -1.0 0.00e+00    -  0.00e+00 0.00e+00   0
   1  3.6918164e-01 9.90e+01 7.18e-01  -1.0 1.57e+02    -  1.98e-03 2.02e-03h  1
   2  4.4472408e-01 9.79e+01 1.95e+00  -1.0 1.02e+01    -  2.35e-03 1.10e-02h  1
   3  8.3401237e+00 9.09e+01 3.59e+00  -1.0 9.92e+00    -  1.39e-02 7.24e-02f  1
   4  8.7452519e+02 9.07e-13 7.05e+00  -1.0 9.20e+00    -  1.11e-01 1.00e+00f  1
   5  3.6122142e+02 2.88e-13 1.49e+00  -1.0 1.51e+00    -  1.00e+00 4.37e-01f  1
   6  5.3411463e+02 7.85e-13 1.00e-06  -1.0 1.09e+01    -  1.00e+00 1.00e+00f  1
   7  4.8678513e+01 9.57e-13 2.83e-08  -2.5 9.47e+00    -  1.00e+00 1.00e+00f  1
   8  2.1308675e+01 5.95e-13 2.83e-08  -2.5 4.33e+00    -  1.00e+00 1.00e+00f  1
   9  3.1569092e+00 2.89e-14 1.50e-09  -3.8 2.53e+00    -  1.00e+00 1.00e+00f  1
iter    objective    inf_pr   inf_du lg(mu)  ||d||  lg(rg) alpha_du alpha_pr  ls
  10  1.3181380e+00 5.19e-13 1.50e-09  -3.8 1.22e+00    -  1.00e+00 1.00e+00f  1
  11  1.8604648e-01 6.85e-13 1.85e-11  -5.7 6.83e-01    -  1.00e+00 1.00e+00f  1
  12  5.2820787e-02 2.66e-13 1.85e-11  -5.7 3.40e-01    -  1.00e+00 1.00e+00f  1
  13  1.9529608e-02 5.60e-13 1.84e-11  -5.7 1.66e-01    -  1.00e+00 1.00e+00f  1
  14  2.8681364e-03 7.28e-14 2.66e-14  -8.6 9.00e-02    -  1.00e+00 1.00e+00f  1
  15  5.6037996e-04 9.41e-13 2.66e-14  -8.6 4.50e-02    -  1.00e+00 1.00e+00f  1
  16 -1.6555231e-05 7.83e-13 2.66e-14  -8.6 2.25e-02    -  1.00e+00 1.00e+00f  1
  17 -1.6078230e-04 7.90e-14 2.66e-14  -8.6 1.12e-02    -  1.00e+00 1.00e+00f  1
  18 -1.9681659e-04 4.85e-13 2.66e-14  -8.6 5.44e-03    -  1.00e+00 1.00e+00f  1
  19 -2.1305229e-04 8.66e-14 1.07e-14  -9.0 2.81e-03    -  1.00e+00 1.00e+00f  1

Number of Iterations....: 19

                                   (scaled)                 (unscaled)
Objective...............:  -2.1305229459850285e-04   -2.1305229459850285e-04
Dual infeasibility......:   1.0658141036401503e-14    1.0658141036401503e-14
Constraint violation....:   8.6597395920762210e-14    8.6597395920762210e-14
Complementarity.........:   4.0024199922286802e-09    4.0024199922286802e-09
Overall NLP error.......:   4.0024199922286802e-09    4.0024199922286802e-09


Number of objective function evaluations             = 20
Number of objective gradient evaluations             = 20
Number of equality constraint evaluations            = 20
Number of inequality constraint evaluations          = 0
Number of equality constraint Jacobian evaluations   = 20
Number of inequality constraint Jacobian evaluations = 0
Number of Lagrangian Hessian evaluations             = 19
Total CPU secs in IPOPT (w/o function evaluations)   =      1.423
Total CPU secs in NLP function evaluations           =      0.799

EXIT: Optimal Solution Found.

************************ CUTEst statistics ************************


 Package used            :  IPOPT
 Problem                 :  A2ENINDL  
 # variables             =           45006
 # constraints           =           15002
 # objective functions   =        0.4100000E+02
 # objective gradients   =        0.2100000E+02
 # objective Hessians    =        0.2000000E+02
 # Hessian-vector prdct  =        0.0000000E+00
 # constraints functions =        0.4200000E+02
 # constraints gradients =        0.2200000E+02
 # constraints Hessians  =        0.2000000E+02
 Exit code               =               0
 Final f                 =       -2.1305229459850285D-04
 Bounds feasibility      =        9.9090716320933315D-09
 Set up time             =            0.82 seconds
 Solve time              =            4.61 seconds


******************************************************************

